qbf_easy_train/easy_3217_UNSAT.qdimacs
p cnf 34 97
a 11 5 0
e 1 2 3 4 6 7 8 9 10 12 13 14 15 16 17 18 19 20 21 22 23 24 25 26 27 28 29 30 31 32 33 34 0
-1 2 -3 0
1 -2 -3 0
-1 -2 3 0
1 2 3 0
-5 3 0
-5 4 0
-3 -4 5 0
-9 7 0
-9 8 0
-7 -8 9 0
10 6 0
10 9 0
-6 -9 -10 0
4 -10 -11 0
-4 10 -11 0
4 10 11 0
-4 -10 11 0
11 -6 -12 0
-11 6 -12 0
11 6 12 0
-11 -6 12 0
-13 -3 0
-13 9 0
3 -9 13 0
-14 -12 0
-14 13 0
12 -13 14 0
15 5 0
15 -14 0
-5 14 -15 0
-16 -1 0
-16 -11 0
1 11 16 0
17 -16 0
17 -10 0
16 10 -17 0
19 3 0
19 -18 0
-3 18 -19 0
20 17 0
20 -19 0
-17 19 -20 0
21 -6 0
21 -2 0
6 2 -21 0
-22 21 0
-22 7 0
-21 -7 22 0
-23 22 0
-23 -11 0
-22 11 23 0
22 -23 -24 0
-22 23 -24 0
22 23 24 0
-22 -23 24 0
20 24 -25 0
-20 -24 -25 0
20 -24 25 0
-20 24 25 0
3 -26 -27 0
-3 26 -27 0
3 26 27 0
-3 -26 27 0
-28 -27 0
-28 -22 0
27 22 28 0
-27 2 -29 0
27 -2 -29 0
-27 -2 29 0
27 2 29 0
2 -16 -30 0
-2 16 -30 0
2 16 30 0
-2 -16 30 0
31 -29 0
31 30 0
29 -30 -31 0
-32 28 0
-32 31 0
-28 -31 32 0
-25 32 -33 0
25 -32 -33 0
-25 -32 33 0
25 32 33 0
-34 15 0
-34 -33 0
-15 33 34 0
17 30 20 -1 0
-28 -32 34 21 16 0
-31 17 -29 7 21 0
-20 -18 1 0
19 2 -24 -33 -7 27 0
14 -18 -33 20 -34 23 -10 0
25 -7 -20 0
-3 -32 26 18 6 0
-5 -3 33 0
34 0
