sat_easy_train/easy_3217_UNSAT.dimacs
p cnf 129 430
2 -3 -4 0
-2 3 -4 0
2 3 4 0
-2 -3 4 0
5 -1 0
5 -4 0
1 4 -5 0
-7 6 0
-7 -2 0
-6 2 7 0
-8 -5 0
-8 7 0
5 -7 8 0
11 9 0
11 10 0
-9 -10 -11 0
-13 -11 0
-13 -12 0
11 12 13 0
-14 13 0
-14 -11 0
-13 11 14 0
-16 -9 0
-16 -15 0
9 15 16 0
17 14 0
17 16 0
-14 -16 -17 0
-18 -13 0
-18 -4 0
13 4 18 0
20 19 0
20 15 0
-19 -15 -20 0
-18 20 -21 0
18 -20 -21 0
-18 -20 21 0
18 20 21 0
-9 -22 0
9 -22 0
23 21 0
23 22 0
-21 -22 -23 0
-24 17 0
-24 23 0
-17 -23 24 0
18 -25 -26 0
-18 25 -26 0
18 25 26 0
-18 -25 26 0
-27 12 0
-27 4 0
-12 -4 27 0
-28 -26 0
-28 -27 0
26 27 28 0
5 -29 -30 0
-5 29 -30 0
5 29 30 0
-5 -29 30 0
-31 11 0
-31 7 0
-11 -7 31 0
-32 9 0
-32 -7 0
-9 7 32 0
-33 29 0
-33 32 0
-29 -32 33 0
31 33 -34 0
-31 -33 -34 0
31 -33 34 0
-31 33 34 0
-30 -34 -35 0
30 34 -35 0
-30 34 35 0
30 -34 35 0
-36 28 0
-36 -35 0
-28 35 36 0
-33 16 -37 0
33 -16 -37 0
-33 -16 37 0
33 16 37 0
-36 -37 -38 0
36 37 -38 0
-36 37 38 0
36 -37 38 0
39 -24 0
39 38 0
24 -38 -39 0
40 -25 0
40 9 0
25 -9 -40 0
41 -40 0
41 5 0
40 -5 -41 0
-2 42 -43 0
2 -42 -43 0
-2 -42 43 0
2 42 43 0
44 -41 0
44 -43 0
41 43 -44 0
45 -10 0
45 43 0
10 -43 -45 0
46 -27 0
46 -3 0
27 3 -46 0
-47 -46 0
-47 22 0
46 -22 47 0
48 -47 0
48 30 0
47 -30 -48 0
-49 48 0
-49 13 0
-48 -13 49 0
-45 49 -50 0
45 -49 -50 0
-45 -49 50 0
45 49 50 0
-44 50 -51 0
44 -50 -51 0
-44 -50 51 0
44 50 51 0
-53 27 0
-53 -52 0
-27 52 53 0
54 -9 0
54 -14 0
9 14 -54 0
53 -54 -55 0
-53 54 -55 0
53 54 55 0
-53 -54 55 0
28 5 -56 0
-28 -5 -56 0
28 -5 56 0
-28 5 56 0
58 -19 0
58 3 0
19 -3 -58 0
-59 57 0
-59 58 0
-57 -58 59 0
60 56 0
60 59 0
-56 -59 -60 0
-61 -55 0
-61 -60 0
55 60 61 0
-62 -51 0
-62 -61 0
51 61 62 0
-63 -39 0
-63 -62 0
39 62 63 0
-64 -8 0
-64 63 0
8 -63 64 0
-65 46 0
-65 13 0
-46 -13 65 0
-43 65 -66 0
43 -65 -66 0
-43 -65 66 0
43 65 66 0
-67 -9 0
-67 -40 0
9 40 67 0
-68 -67 0
-68 32 0
67 -32 68 0
69 -9 0
69 -43 0
9 43 -69 0
70 69 0
70 12 0
-69 -12 -70 0
71 69 0
71 -70 0
-69 70 -71 0
-72 5 0
-72 -14 0
-5 14 72 0
73 -71 0
73 72 0
71 -72 -73 0
74 -68 0
74 -73 0
68 73 -74 0
66 -74 -75 0
-66 74 -75 0
66 74 75 0
-66 -74 75 0
-40 76 0
40 76 0
-77 -26 0
-77 76 0
26 -76 77 0
-78 -11 0
-78 3 0
11 -3 78 0
79 77 0
79 78 0
-77 -78 -79 0
-81 3 0
-81 -80 0
-3 80 81 0
79 81 -82 0
-79 -81 -82 0
79 -81 82 0
-79 81 82 0
-75 82 -83 0
75 -82 -83 0
-75 -82 83 0
75 82 83 0
-84 40 0
-84 14 0
-40 -14 84 0
25 -27 -85 0
-25 27 -85 0
25 27 85 0
-25 -27 85 0
-86 -9 0
-86 -67 0
9 67 86 0
-87 85 0
-87 -86 0
-85 86 87 0
-84 -87 -88 0
84 87 -88 0
-84 87 88 0
84 -87 88 0
-89 -5 0
-89 -2 0
5 2 89 0
90 88 0
90 -89 0
-88 89 -90 0
-91 -3 0
-91 16 0
3 -16 91 0
-92 90 0
-92 -91 0
-90 91 92 0
93 -46 0
93 80 0
46 -80 -93 0
93 -7 -94 0
-93 7 -94 0
93 7 94 0
-93 -7 94 0
95 92 0
95 -94 0
-92 94 -95 0
46 -20 -96 0
-46 20 -96 0
46 20 96 0
-46 -20 96 0
-96 1 -97 0
96 -1 -97 0
-96 -1 97 0
96 1 97 0
-98 -95 0
-98 -97 0
95 97 98 0
-12 1 -99 0
12 -1 -99 0
-12 -1 99 0
12 1 99 0
-100 98 0
-100 -99 0
-98 99 100 0
-101 31 0
-101 80 0
-31 -80 101 0
-102 -32 0
-102 -27 0
32 27 102 0
-103 102 0
-103 -31 0
-102 31 103 0
9 40 -104 0
-9 -40 -104 0
9 -40 104 0
-9 40 104 0
105 10 0
105 -104 0
-10 104 -105 0
-105 -7 -106 0
105 7 -106 0
-105 7 106 0
105 -7 106 0
-34 106 -107 0
34 -106 -107 0
-34 -106 107 0
34 106 107 0
103 -107 -108 0
-103 107 -108 0
103 107 108 0
-103 -107 108 0
-109 -40 0
-109 14 0
40 -14 109 0
-58 109 -110 0
58 -109 -110 0
-58 -109 110 0
58 109 110 0
-108 110 -111 0
108 -110 -111 0
-108 -110 111 0
108 110 111 0
1 -32 -112 0
-1 32 -112 0
1 32 112 0
-1 -32 112 0
112 -13 -113 0
-112 13 -113 0
112 13 113 0
-112 -13 113 0
-114 6 0
-114 -40 0
-6 40 114 0
-115 -113 0
-115 -114 0
113 114 115 0
117 116 0
117 -29 0
-116 29 -117 0
-118 117 0
-118 -12 0
-117 12 118 0
-119 115 0
-119 -118 0
-115 118 119 0
111 -119 -120 0
-111 119 -120 0
111 119 120 0
-111 -119 120 0
-121 101 0
-121 -120 0
-101 120 121 0
100 -121 -122 0
-100 121 -122 0
100 121 122 0
-100 -121 122 0
123 83 0
123 122 0
-83 -122 -123 0
124 -13 0
124 -43 0
13 43 -124 0
125 124 0
125 112 0
-124 -112 -125 0
126 -14 0
126 -69 0
14 69 -126 0
125 -126 -127 0
-125 126 -127 0
125 126 127 0
-125 -126 127 0
-123 127 -128 0
123 -127 -128 0
-123 -127 128 0
123 127 128 0
64 -128 -129 0
-64 128 -129 0
64 128 129 0
-64 -128 129 0
17 -50 48 28 0
64 85 126 -47 -11 41 0
65 125 70 -73 -36 0
73 41 0
29 69 -50 -109 97 85 0
86 -89 33 -46 -39 114 0
-32 -42 -47 22 0
18 -104 0
-18 -60 119 73 0
127 -109 5 86 -36 74 0
4 -53 -17 40 -116 0
38 -81 -98 0
114 22 86 -3 0
-9 29 0
-35 46 -114 -79 0
-91 -54 -21 -104 124 0
-100 -39 6 -65 21 -72 0
-46 -103 107 101 0
-12 62 -71 77 115 -53 0
-62 121 -47 -58 37 -83 0
93 -8 -5 -34 -82 102 0
-97 -73 44 0
-16 -58 97 0
110 -70 -34 -82 10 6 0
-75 119 -97 69 -18 0
118 119 99 0
-54 -60 -85 -5 105 0
-32 90 -111 0
-122 -81 -49 0
113 36 -41 -32 0
9 59 -68 53 0
-63 -122 102 -19 0
6 52 -94 -110 -4 -74 0
60 99 -41 -59 0
-108 -5 6 -91 124 -93 0
80 -74 129 0
3 -105 50 -11 48 0
-68 -76 0
-1 9 52 -89 -46 0
109 -42 24 0
-53 -62 0
118 -55 -19 14 -123 80 0
128 -129 114 -40 -41 0
-14 -104 -82 -97 0
52 -7 -80 128 60 0
-60 -68 88 -36 0
-100 61 -42 -98 -59 0
58 98 46 -97 0
-48 -81 59 78 0
-102 -113 61 0
-56 -123 0
91 -34 -32 0
-68 30 0
-85 -126 -120 -23 0
68 -115 -22 -80 66 -102 0
69 -22 0
129 0
